Version identifier: 20.1.0.0 | 2020-11-10 | 9bedb6d68
CPXPARAM_Read_DataCheck                          1
CPXPARAM_TimeLimit                               43200
Found incumbent of value 0.000000 after 0.00 sec. (0.21 ticks)
Tried aggregator 3 times.
MIP Presolve eliminated 1737 rows and 1105 columns.
MIP Presolve modified 839 coefficients.
Aggregator did 8 substitutions.
Reduced MIP has 818 rows, 1240 columns, and 5351 nonzeros.
Reduced MIP has 1135 binaries, 0 generals, 0 SOSs, and 0 indicators.
Presolve time = 0.01 sec. (12.10 ticks)
Probing fixed 37 vars, tightened 0 bounds.
Probing time = 0.01 sec. (4.95 ticks)
Cover probing fixed 0 vars, tightened 23 bounds.
Tried aggregator 2 times.
Detecting symmetries...
MIP Presolve eliminated 57 rows and 38 columns.
MIP Presolve modified 208 coefficients.
Aggregator did 1 substitutions.
Reduced MIP has 760 rows, 1201 columns, and 5099 nonzeros.
Reduced MIP has 1098 binaries, 0 generals, 0 SOSs, and 0 indicators.
Presolve time = 0.01 sec. (7.29 ticks)
Probing time = 0.00 sec. (2.65 ticks)
Clique table members: 1146.
MIP emphasis: balance optimality and feasibility.
MIP search method: dynamic search.
Parallel mode: deterministic, using up to 12 threads.
Root relaxation solution time = 0.02 sec. (24.70 ticks)

        Nodes                                         Cuts/
   Node  Left     Objective  IInf  Best Integer    Best Bound    ItCnt     Gap

*     0+    0                            0.0000       64.0000              --- 
      0     0       56.2753   158        0.0000       56.2753      714     --- 
*     0+    0                           42.8750       56.2753            31.25%
*     0+    0                           47.1875       56.2753            19.26%
      0     0       54.6635   131       47.1875     Cuts: 240      951   15.84%
*     0+    0                           47.9844       54.6635            13.92%
      0     0       54.4902   119       47.9844     Cuts: 104     1090   13.56%
      0     0       54.4502   113       47.9844      Cuts: 46     1146   13.47%
      0     0       54.4380   130       47.9844      Cuts: 24     1177   13.45%
      0     0       54.4105   135       47.9844      Cuts: 44     1215   13.39%
      0     0       54.4048   134       47.9844      Cuts: 25     1246   13.38%
      0     0       54.3990   136       47.9844      Cuts: 18     1267   13.37%
      0     0       54.3942   135       47.9844      Cuts: 15     1282   13.36%
      0     0       54.3937   138       47.9844       Cuts: 4     1290   13.36%
      0     0       54.3937   125       47.9844       Cuts: 4     1301   13.36%
      0     0       54.3934   128       47.9844      Cuts: 27     1328   13.36%
*     0+    0                           49.5312       54.3934             9.82%
*     0+    0                           51.7188       54.3934             5.17%
      0     2       54.3934   123       51.7188       54.3934     1328    5.17%
Elapsed time = 0.41 sec. (288.06 ticks, tree = 0.02 MB, solutions = 5)
*     7+    2                           51.9219       54.3905             4.75%
*    10+    2                           52.1562       54.3905             4.28%
   1375   853       53.0562    91       52.1562       53.8419    31429    3.23%
   2986  1864       53.0530    47       52.1562       53.2780    70875    2.15%

Performing restart 1

Repeating presolve.
Tried aggregator 2 times.
MIP Presolve eliminated 9 rows and 1 columns.
MIP Presolve modified 101 coefficients.
Aggregator did 1 substitutions.
Reduced MIP has 750 rows, 1199 columns, and 5061 nonzeros.
Reduced MIP has 1097 binaries, 0 generals, 0 SOSs, and 0 indicators.
Presolve time = 0.01 sec. (4.54 ticks)
Tried aggregator 1 time.
MIP Presolve modified 57 coefficients.
Reduced MIP has 750 rows, 1199 columns, and 5061 nonzeros.
Reduced MIP has 1097 binaries, 0 generals, 0 SOSs, and 0 indicators.
Presolve time = 0.00 sec. (3.72 ticks)
Represolve time = 0.03 sec. (19.23 ticks)
   3970     0       54.3189   128       52.1562      Cuts: 29   101288    2.05%
*  3970+    0                           52.2500       53.2229             1.86%
   3970     0       54.2110   120       52.2500      Cuts: 56   101370    1.86%
   3970     0       54.0902   115       52.2500      Cuts: 53   101445    1.86%
   3970     0       54.0364   121       52.2500      Cuts: 50   101531    1.86%
*  3970+    0                           52.6094       53.2229             1.17%
   3970     0       54.0120   117       52.6094      Cuts: 71   101584    1.17%
   3970     0       53.9767   113       52.6094      Cuts: 30   101673    1.17%
   3970     0       53.9747   137       52.6094      Cuts: 45   101733    0.70%
   3970     2       53.9747   126       52.6094       52.7364   101733    0.24%
   3995    11       53.0898   111       52.6094       52.7364   103934    0.24%

GUB cover cuts applied:  6
Clique cuts applied:  16
Implied bound cuts applied:  2
Flow cuts applied:  9
Mixed integer rounding cuts applied:  50
Zero-half cuts applied:  5
Lift and project cuts applied:  5
Gomory fractional cuts applied:  8

Root node processing (before b&c):
  Real time             =    0.40 sec. (287.75 ticks)
Parallel b&c, 12 threads:
  Real time             =    2.33 sec. (2064.06 ticks)
  Sync time (average)   =    0.39 sec.
  Wait time (average)   =    0.01 sec.
                          ------------
Total (root+branch&cut) =    2.73 sec. (2351.82 ticks)
